r = [
0,43,98,20,49,87,90,85,39,70,31,0
];
p = [
0,2,14,22,26,8,13,1,16,26,5,0
];
e = [
0,4,17,8,1,11,18,11,9,15,19,0
];
d = [
0,80,112,42,75,95,103,123,55,111,70,134
];
d_bar = [
0,82,125,62,98,102,115,124,69,134,75,134
];
w = [
0,2,1.307692308,0.4,0.043478261,1.571428571,1.5,11,0.642857143,0.652173913,3.8,0
];
